
 102   30
  10   10   10   10   10   10   10   10   10   10   10   10   10   10   10   10   10   10   10   10   10   10   10   10   10   10   10   10   10   10

   0   0   0   0   0   0   0   0   0   0   0   0   0   0   0   0   0   0   0   0   0   0   0   0   0   0   0   0   0   0   0  23 2 3 4 5 6 7 8 9 10 11 12 13 18 19 20 22 24 26 28 29 30 33 43 
   4   0   1   0   0   0   0   0   0   0   0   0   0   0   4   0   0   0   0   0   0   2   4   0   0   0   0   0   1   2   0  18 67 65 64 57 54 53 50 47 46 45 40 39 37 34 32 31 21 14 
   5   0   0   0   0   0   1   0   0   0   0   0   0   0   0   0   2   0   0   1   0   0   0   0   0   3   0   0   0   0   0  13 71 63 58 56 49 45 41 40 39 36 35 23 15 
   5   0   0   1   0   0   8   0   0   1   2   4   0   1   0   1   0   0   0   0   0   0   0   2   0   0   0   0   0   0   0  14 67 65 64 61 58 57 56 54 52 49 37 36 35 16 
   6   0   0   0   1   0   0   2   0   2   5   0   0   0   0   0   6   0   0   0   2   0   0   4   1   0   0   0   0   0   0  17 101 100 97 73 72 71 65 64 63 57 56 54 51 44 42 40 25 
   4   0   0   0   0   1   4   0   0   0   0   4   0   0   6   0   0   3   0   0   5   0   0   5   9   0   0   0   0   0   0  22 101 92 91 73 72 71 70 66 64 63 62 61 59 58 57 56 55 54 49 48 41 36 
   2   2   0   0   0   0   0   4   1   0   0   6   0   0   0  10   3   0   0   0   6   0   0   0   0   0   0   0   7   0   0  13 101 99 96 73 70 67 63 62 60 47 44 37 17 
   3   7   0   0   0   6   0   0   0   0   0   0   0   0   5   0   0   0   0   0   0   0   0   0   0   6   0   0   0   0   0  11 97 72 65 63 58 54 45 40 34 27 25 
   3   0   0   0   0   6   6   0   4   0   4   0   0  10   0   0   0   0   0   0   0   0   0   0   0   0   0   0   7   0   0  20 98 96 73 72 68 63 61 60 59 57 56 54 52 51 49 48 47 44 38 37 
   4   0   0   0   0   0   0   0   0   0   0   0   0   0   0   0   0   8   0  10   0   0   0   0   0   0   0   0   0   0   0  18 101 100 98 91 89 73 64 63 61 59 58 56 55 52 47 44 40 36 
   4   0   0   0   0   0   0   0   5   0   5   0   0   0   0   0   0   0   2   0   5   0   0   0   0   0   0   0   0   0   0  15 101 99 97 96 94 73 71 67 61 60 58 51 40 32 31 
   9   0   0   0   4   0   0   0   7   3   0   0   0   0   0   0   0  10   0   0   0   0   0   0   0   0   0   0   0   0   0  14 101 99 96 89 72 71 60 59 55 51 48 47 40 34 
   2   0   0   0   0   0   0   0   5   0   0   0   0   0   0   0   0   0   0   0   0   0   0   9   0   0   0   0   0   7   0  12 99 93 89 73 60 59 48 47 46 45 44 37 
   7   0   0   0   0   0   0   0   0   0   0   9   0   0   0   0   0   0   0   0   0   0   0   0   0   0   0   0   0   0   0  16 96 95 90 73 72 70 62 61 60 59 58 56 55 52 49 44 
  10   0   0   0   0   0   0   8   0   0   0   0   0   0   0   0   0   0   0   0   0   0   0   0   0   3   0   0   3   0   0  15 99 98 96 89 86 72 68 65 64 62 61 59 47 44 37 
   8   0   0   0   0   0   0   0   7   0   0   0   0   0   0   0   0   0   0   0   0   0   0   0   0   0   0   0   0   0   0  17 100 98 96 94 91 89 87 72 70 68 66 62 60 59 55 51 47 
   3   0   0   0   0   0   0   0   0   0   0   0   1   0   0   0   0   0   0   0   0   0   0   0   0   0   0   0   0   5   0  16 100 98 97 92 91 78 72 71 66 65 64 61 59 56 55 54 
   6   8   0   0   0   0   0   0   0   0   0   0   8   8   0   0   0   2   0   0   0   0   0   0   0   0   0   0   0   0   0  12 100 96 95 70 67 64 61 59 56 55 52 35 
   7   0   0   0   7   0   0   0   0   0   5   7   0   5   0   0   5   0   0   0   0   0   0   0   0   0   0   0   0   0   3  13 97 96 92 88 85 70 68 67 63 62 54 52 37 
   2  10   0   0   0   0   0   0   0   0   0   0   0   0   0   4   0   4   0   0   0   0   0   5   5   0   0   1   0   0   0  16 98 97 96 91 89 88 85 73 70 69 64 61 60 57 55 42 
   8   0   4   0   0   0   0   0   0   0   0   0   0   0   5   0   0   5   0   0   0   0   0   0   0   0   1   0   0   0   0  14 101 97 93 91 90 87 72 71 63 60 59 51 44 38 
   3   0   0   0   0   0   0   6   6   0   0   0   0   0   8   0   0   0   0   0   6   0   0   0   0   0   0   0   0   0   0   6 96 95 63 46 42 32 
   9   0   0   0   0   0   7   6   0   0   0   0   6   0   0   0   0   9   0   0   0   2   0   0   0   0   0   0   0   0   0  14 101 100 97 96 92 88 85 79 73 72 62 61 54 37 
   8   0   0   0   0   0   0   0   0   0  10   0   0   0   0   0   0   0   0   0   0   0   0   8   0   0   0   0   0   0   0  14 98 97 95 94 85 73 70 69 67 64 61 56 55 54 
   9   0   0   0   0   0   0   0   0   0   0   0   0   0   6   0   0   0   0   0   0   0   0   0   0   0   0   0   0   0   0  13 99 98 96 94 93 91 90 87 82 61 60 59 38 
   5   0   0   6   0   0   0   0   0   0   0   0   0   0   0   0   0   0   4   0   7   0   0   0   0   0   0   0   0   0   0  21 100 95 94 93 92 91 90 89 88 87 85 82 80 79 73 69 68 63 62 61 55 
   1   0   7   0   0   0   0   0   0   0   0   0   0   0   7   0   0   0   0   8   0  10   0   0   0   0   0   0   0   0   4  19 100 99 96 95 94 92 91 89 87 86 85 84 82 70 69 62 60 55 51 
   6   0   0   0   0   0   0   9   0   0   0   0   0  10   0   7   0   0   0   6   0   0   0   0   0   0   0   0   0   0   7  20 100 99 96 95 92 91 89 88 87 86 85 84 82 80 79 78 69 65 62 55 
   9   0   0   0   0   0   0   0   9   0   0   0   9   0   6   0   0   0   0   0   6   6   0   0   0   0   0   7   0   0   0  14 100 99 98 94 91 89 87 84 78 77 62 59 56 44 
  10   0   0   0   0   0   6   0   0   0   0   0   0   0   0   0   0   0   0   0   0   7   0   0   0   0   5   0   0   0   0  11 90 89 84 82 80 73 71 63 59 55 44 
  10   0   0   6   0   0   0   0   0   8   8   0   0   0   0   0   0   0   0   0   0   0   6   0   0   0   0   0   0   0   0  12 100 95 92 89 88 87 85 82 69 63 56 55 
   6   0   0   0   8   0   0   0   8   0   0   0   0   0   0   0   0   0   0   0   0   0   0   0   0   0   0   0   0   0   0  11 98 91 90 89 87 82 80 78 59 55 44 
   4   0   3   0   0   0   0   0   0   0   0   0   0   0   0   3   0   0   9   0   0   0   0   0   0   0   0   0   0   0   0  11 96 95 93 80 73 72 71 69 60 55 48 
   6   0   0   0   0   0   0   7   0   0   0   0   0   0   0   0   0   0   0   0   3   0   0   0   0   0   0   3   0   0   0  12 98 95 94 91 90 82 81 78 77 76 69 56 
   4   0   0   0   0   0   0   0   4   0   0   0   0   0   0   0   0   0   6   0   7   0   0   0   0   0   0   0   0   0  10  14 93 92 91 88 87 86 84 83 82 81 79 78 76 66 
   6   0   0   0   0   0   0   0   6   0   0   0   0   0   0   0   5   0   8   0   0   0   0   0   0   0   0   0   0   0   0  13 99 97 96 95 88 87 85 82 81 77 76 69 60 
   3   0   0   0   5   0   5   0   7   0   9   0   0   0   4   0   0   0   0   0   0   0   0   0   0   0   0   0   0   5   0   9 94 91 87 84 81 80 78 69 55 
  10   0   0   0   0   0   0   0   7  10   5   0   0   0   2   7   0   0   0   0   0   0   0   0   0   0   0   0   0   0   0   9 95 89 86 85 84 81 80 69 55 
   6   0   0   0   0   0   0   0   6   0   0   0   0   0   0   0   0   0   0   0   0   0   0   0   7   0   0   0   0   0   5  11 99 92 91 88 86 80 79 77 75 72 69 
   5   0   0   0   0   0   0   0   0   0   9   0   0   0   6   0   0   0  10   0   0   6   0   0   0   0   0   0   0   0   4  10 93 87 85 84 83 82 78 77 70 68 
   7   0   0   0   0   0   6   0   0   6   0   0   0   0   0   0   0   0   0   0   0   0   6   0   0   9   0   0   0   0   0   9 90 84 80 79 78 75 69 68 65 
   9   0   0   0   5   0   0   0   0   0   0   0   0   0   0   0   0   9   0   0   0   0   0   0   0   0   0   0   0   0   0   9 93 87 86 84 82 80 78 74 62 
   8   0   0   0   9   0   0   4   6   0   0   0   0   0   0   0   0   6   0   0   0   0   0   0   6   0   0   0   0   0   0   8 93 90 85 80 79 77 75 59 
   7   0   0   6   0   0   0   7   0   0   0   0   6   0   9   0   0   0   0   0   6   0   0   0   0   5   0   0   0   0   0   9 92 88 85 83 81 79 76 75 69 
   6   0  10   2   0   0   0   4   0   0   0   0   0   0   0   0   0   0   0   0   0   0   0   0   0   0   0   0   0   0   0   9 96 86 82 80 79 77 76 75 69 
   7   0   0   0   0   0   0   0   0   0   0   0   0   5   4   9   0   0   0   0   0   0   0   0   9   0   7   8   0   0   0   8 98 83 82 79 78 76 70 69 
   7   6   0   0   0   7   0   0   0   0   0   0   0   0   0   0   0   0   0   0   0   0   0   0   0   0   0   6   0   0   0   9 97 95 92 90 84 79 78 76 74 
   9   0   0   8   0   0   0   6   0   0   0   0   0   0   6   0   7   0   0   0   0   0   0   0   5   0   0   0   0   4   0   9 97 88 86 83 78 77 76 75 74 
   6   0   0   0   0   0   0   0   0   0   0   2   0   0   4   0   0   0   0   0   0   0   0   0   0   0   0   0   0   0   0   8 89 86 84 81 80 77 76 69 
   7   0   0   0   6   0   0   0   0   0   0   0   0   0   0   0   6   4   0   0   0   7   0   0   0   0   0   0   5   0   0   6 97 91 80 79 74 61 
   5   0   0   0   0   0   0   0   0   0   0  10   8   0   0   0  10   0   0   0   0   0   0   0   0   0   5   0   0   0   0   7 81 80 79 78 77 75 74 
   4   0   0   0   0   0   0   0   0   0   0   0   7   0   0   0   0   0   0   0   0   0   0   0   8   0   0   0   0   7   0   6 94 93 83 82 77 71 
   7   0   0   0   0   0   0   0   0   0   0   0   0   0   0  10   0   0   7   0   7   0   0   0   9   0   0   8   0   0   0   4 83 77 74 60 
  10   0   3   0   0   0   0  10   0   7   0   0   0   0   0   0   8   0   0   0   0   0   0  10   0   0   0   0   0   0   0   6 90 89 87 86 82 81 
   2   0   0   9   0   7   8   5   0   0   0   0   0   0   6   0   0   0   0   0   0   0   0   0   0   0   0   0   0   0   0   5 83 77 76 75 74 
  10   0   0   0   0   0   0   0   0   0   5   0   0   0   0   0   0   0   0   0   9   0   0   0   0   0   0   0   0   0   0   5 93 86 80 79 75 
   7   0   0   0   0   6   7   0   0   0   0   0   0   5   0   0   0   0   0   0   0   0   0   0   7   6   0   0   0   0   0   5 99 84 78 77 75 
   3   6   0   0   0   0   0   0   0   0   0   0   0   0   0   8   0   0   5   5   0   0   0   0   0   0   0   0   0   0   0   4 87 82 76 74 
   4   0   0   0   0   0   0   0   0   0   0   0   0   6   0   0   0   0   0   0   0   0   0   0   0   0   0   0   0   0   0   3 88 81 69 
   1   5   0   7   0   0   0   4   0   0   0   0   0   0   0   5   0   0   0   0   0   0   0   0   0   0   0   0   0   0   0   3 79 78 75 
   7   0   0   5   0   0   0   0   0   0   0   0   3   0   0   0   0   0   0   0   0   0   0   0   0   0   7   0   0   0   0   3 84 77 76 
   2   0   0   0   0   0   0   0  10   0   7   0   0   0   0   0   0   0   0   7   0   0   0   0   5   0   0   0   0   0   9   3 81 76 75 
   5   0   0   0   0   0   0  10   0   7   0   0   4   0   0   0   0   0   0   0   0   0   0   0   5   3   0   0   6   0   0   3 78 75 74 
   6   0   0   0   0   0   9   0   0   0   5   0   5   0   0   0   0   0   7   0   0   0   0   0   0   0   0   0   0   0   0   3 90 82 76 
   7   0   0   0   0   0   0   0   0   0   0   0   0   0   4   0   0   0   0   0   0   0   0   0   5   0   0   0   0   0   0   3 94 81 76 
   6   0   5   0   0   0   0   0   0   0   0   0   0   3   0   0   0   5   0   0   0   0   0   0   0   8   0   0   0   0   0   3 85 80 74 
   1   0   0   0   0   0   0   0   0   0   0   0   0   0   0   0   0   0   0   0   0  10   6   0   0   0   0   0   0   0   0   3 79 77 75 
   8   0   0   0   0   0   0   0   0   0   0   0   0   0   8   0   0   0   0   0   0   0   6   0   0   0   0   0   0   0   0   2 76 74 
   5   0   0   0   0   0   0   0   0   7   8   4   0   0   0   0   0   0   0   0   0   0   0   0   0   0   0   7   0   0   0   1 74 
   4   0   0   0   0   0   0   0   0   6   0   0   0   0   0   0   0   0   0   0   0   0   4   0   0   0   0   0   8   0   0   1 75 
   6   0   0   0   0   0   7   0   5   0   6   0   0   0   0   0   0   0   0   4   0   0   0   0   0   8   0   0   0   0   0   1 74 
   6   0   0   0   0   0   0   0   0   0   4   0   5   0   0   0   0   2   0   0   0   0   0   0   0   0   0   0   0   0   0   1 82 
   9   0   0   0   0   0   8   0   0   0   0   0   0   6   0   0   0   0   0   0   0   0   5   0   0   0   0   0   0   0   0   1 78 
   9   0   0   0   0   0   0   0   0   0   0   8   0   0   0   0   0   6   0   0   0   0   0   0   0   0   0   0   0   0   0   1 102
   8   0   0   0   0   0   0   0   0   0   0   0   0   0   0   0   5   0   0   0   0   0   5   0   0   0   0   0   0   0   0   1 102
   1   0   0   0   0   0   0   0   0   0   0   7   0   0   0   0   0   0   0   0   0   0   0   0   0   0   0   0   0   8   0   1 102
   5   0   0   0   0   0   0   0   0   0   0   0   0   0   0   0   0   0   0   0   3   0   7   0   0   0   0   0   0   0   3   1 102
   8   0   0   0   0   0   0   0   0   0   0   0   6   0   0   0   0   0   0   0   0   0   0   5   0   5   0   0   0   0   0   1 102
   3   0   0   0   0   0   0   0   0   0   0   0   0   0   0   0   0   0   0   0  10   0   0   0   0   0   0   0   0  10   0   1 102
   8   9   0   0   0   0   0   0   0   0   0   0   0   0   0   0   0   0   0   0   0   0   0   0   0   0   5   0   0   0   5   1 102
  10   0   0   0   0   0   0   0   0   0   0   0   0   0   0   4   0   9   0   0   0   0   0   7   0   0   0   0   0   0   0   1 102
   3   4   0   8   7   0   0   0   7   0   0   0   0   0   0   0   7   0   0   0   0   0   8   0   0   0   0   3   0   0   0   1 102
   9   0   0   0   0   0   0   0   4   0   0   0   6   0   0   0   0   0   0   0   0   0   0   0   0   0   0   0   0   0   0   1 102
   9   0   0   8   0   0   0   0   0   0   9   0   0   0   0   0  10   0   0   0   0   0   0   0   0   0   0   0   0   0   0   1 102
   4   0   7   0   0   0   0   3   0   0   0   0   0   0   0   0   0   0   0   0   0   0   0   0   0   0   0   0   0   0   0   1 102
   8   0   0   0   0   0   0   0   0   0   0   0   0   0   0   0   0   0   0   0   0   5   0   0   0  10   9   7   9   0   3   1 102
   5   0  10   0   0   0   4   8   0   0   5   0   6   0   0   0   0   0   0   0   5   0   0   0   0   0   5   0   0   0   7   1 102
   7   0  10   0   0   0   0   0   0   0   0   0   0   5   0   0   0   0   0   0   0   0   0   0   0   0   0   9   0   0   8   1 102
   6   0   0   0   0   0   0   0   0   0   3   0   0   0  10   4   0   0   0   0   0   0   0   0   0   0   0   0   0   0   0   1 102
   7   0   0   0   0   5   0   0   0   0   0   3   0   0   6   0   0   0   1   0   0   0   0   0   0   0   0   0   0   0   0   1 102
   8   5   0   0   0   0   0   0   0   0   0   0   0   0   0   0   0   0   0   6   0   0   0   0   0   0   0   0   0   0   0   1 102
   4   4   0   0   0   0   4   0   0   0   0   0  10   0   0   0   0   0   0   9   0   5   0   0   0   0   0   0   0   0   0   1 102
   4   0   0   0   8   0   0   0   0   0   0   0   7   0   0   0   0   0   7   0   0   0   0   0   0   0   8   5   0   0   0   1 102
   3   0   0   0   0  10   0   5   0   0   0   0   5   0   0   0   4   0   0   0   0   0   0   0   0   0   0   0   0   0   0   1 102
   1   0   0   0   0   6   0   0   0   0   0   0   0   0   0   6   0   0   0   4   0   0   5   0   0   0   0   0   7   0   0   1 102
   7   0   6   0   0   0   0   0   0   0   0   0   0   0   0   0   0   8   0   0   0   0   0   0   0   0   0   0   7   0   0   1 102
   5   0   0   0   0   0   0   0   0   0   0   0   0  10   0   0   0   0   0   0   0   0  10   0   4   0   5   8   0   0   0   1 102
  10   0   0   0   0   0   0   0   0   0   0   0   0   0   0   6   0   0   0   0   0   0   0   5   0   0   0   0   0   0   0   1 102
   2   0   0   0   0   0   0   0   0   0   0   0   0   0   0   0   0   0   0   0   0   0   0   0   0   0   0   0   0   0  10   1 102
   5   0   0   0   0   0   0   0   0   9   0   8   0   5   6   0   0   0   0   0   9   0   0   0   0   0   0   0   0   0   0   1 102
   9   0   0   0   0   0   0   0   0   0   0   0   0   5  10   0   0   0   0   0   0   0   0   0   5   0   9   0   0   0   0   1 102
   0   0   0   0   0   0   0   0   0   0   0   0   0   0   0   0   0   0   0   0   0   0   0   0   0   0   0   0   0   0   0   0 
